32      2       
16      17      
0       0       0       1       2       
10      1       0       1       3       
2       3       0       1       4       
8       0       1       2       5       8       
1       0       0       1       6       
10      0       0       1       7       
5       7       0       1       9       
1       0       0       1       9       
9       1       5       2       10      15      
8       5       0       1       11      
4       6       0       2       12      25      
3       0       1       1       13      
3       1       0       1       14      
5       1       0       1       16      
1       4       6       1       16      
9       0       1       1       17      
3       0       1       2       18      23      
1       0       1       2       19      20      
9       4       0       1       21      
6       0       1       1       21      
9       1       15      1       22      
7       0       3       1       24      
5       2       4       1       24      
5       1       4       2       26      27      
8       0       0       2       26      27      
9       0       0       1       28      
3       8       2       1       28      
6       0       0       1       29      
4       0       4       1       30      
7       3       2       1       31      
5       0       0       1       32      
0       0       0       0       
